
Gurobi 9.5.1 (linux64) logging started Fri 10 Jun 2022 12:11:12 PM MST

Set parameter LogFile to value "/home/local/ASUAD/kmajd1/NNRepLayer_v2/demos/walking_example/dynamic_constraint/repair_net/logs/opt_log_6_10_2022_12_10_35.log"
Gurobi Optimizer version 9.5.1 build v9.5.1rc2 (linux64)
Thread count: 48 physical cores, 96 logical processors, using up to 32 threads
Optimize a model with 40962 rows, 25207 columns and 115394 nonzeros
Model fingerprint: 0xfe4cafbe
Model has 151 quadratic objective terms
Variable types: 10807 continuous, 14400 integer (14400 binary)
Coefficient statistics:
  Matrix range     [7e-04, 6e+01]
  Objective range  [2e-02, 3e+00]
  QObjective range [1e-01, 2e+00]
  Bounds range     [1e-01, 6e+01]
  RHS range        [2e-04, 6e+01]
Presolve removed 33569 rows and 18627 columns
Presolve time: 0.08s

Explored 0 nodes (0 simplex iterations) in 0.10 seconds (0.11 work units)
Thread count was 1 (of 96 available processors)

Solution count 0

Model is infeasible
Best objective -, best bound -, gap -
